/* Objective function */
min: +C1 +2 C2 +C3 +2 C4 +2 C5 +C6 +C7 +2 C8 +C9 +2 C10 +2 C11 +C12 +C13 +2 C14 +2 C15 +C16 +C17 +2 C18 +C19
 +2 C20 +C21 +2 C22 +2 C23 +C24 +C25 +2 C26 +C27 +2 C28 +C29 +2 C30 +2 C31 +C32 +C33 +2 C34 +C35 +2 C36
 +C37 +2 C38 +C39 +2 C40 +2 C41 +C42 +C43 +2 C44 +2 C45 +C46 +C47 +2 C48 +2 C49 +C50 +2 C51 +C52 +2 C53
 +C54 +C55 +2 C56 +2 C57 +C58 +C59 +2 C60 +2 C61 +C62 +C63 +2 C64 +2 C65 +C66 +C67 +2 C68 +2 C69 +C70
 +2 C71 +C72 +C73 +2 C74 +2 C75 +C76 +2 C77 +C78 +2 C79 +C80;

/* Constraints */
+C1 +C2 = 1;
+C3 +C4 = 1;
+C5 +C6 = 1;
+C7 +C8 = 1;
+C9 +C10 = 1;
+C11 +C12 = 1;
+C13 +C14 = 1;
+C15 +C16 = 1;
+C17 +C18 = 1;
+C19 +C20 = 1;
+C21 +C22 = 1;
+C23 +C24 = 1;
+C25 +C26 = 1;
+C27 +C28 = 1;
+C29 +C30 = 1;
+C31 +C32 = 1;
+C33 +C34 = 1;
+C35 +C36 = 1;
+C37 +C38 = 1;
+C39 +C40 = 1;
+C41 +C42 = 1;
+C43 +C44 = 1;
+C45 +C46 = 1;
+C47 +C48 = 1;
+C49 +C50 = 1;
+C51 +C52 = 1;
+C53 +C54 = 1;
+C55 +C56 = 1;
+C57 +C58 = 1;
+C59 +C60 = 1;
+C61 +C62 = 1;
+C63 +C64 = 1;
+C65 +C66 = 1;
+C67 +C68 = 1;
+C69 +C70 = 1;
+C71 +C72 = 1;
+C73 +C74 = 1;
+C75 +C76 = 1;
+C77 +C78 = 1;
+C79 +C80 = 1;
+C1 +C3 +C5 +C7 +C9 +C11 +C13 +C15 +C17 +C19 +C21 +C23 +C25 +C27 +C29 +C31 +C33 +C35 +C37 +C39 +C41 +C43
 +C45 +C47 +C49 +C51 +C53 +C55 +C57 +C59 +C61 +C63 +C65 +C67 +C69 +C71 +C73 +C75 +C77 +C79 = 20;
+C2 +C4 +C6 +C8 +C10 +C12 +C14 +C16 +C18 +C20 +C22 +C24 +C26 +C28 +C30 +C32 +C34 +C36 +C38 +C40 +C42
 +C44 +C46 +C48 +C50 +C52 +C54 +C56 +C58 +C60 +C62 +C64 +C66 +C68 +C70 +C72 +C74 +C76 +C78 +C80 = 20;
+C1 +C3 +C5 +C7 +C9 +C11 +C13 +C15 +C17 +C19 +C21 +C23 +C25 +C27 +C29 +C31 +C33 +C35 +C37 +C39 +C41 +C43
 +C45 <= 12;
+C2 +C4 +C6 +C8 +C10 +C12 +C14 +C16 +C18 +C20 +C22 +C24 +C26 +C28 +C30 +C32 +C34 +C36 +C38 +C40 +C42
 +C44 +C46 <= 12;
+C19 +C21 = 1;
+C20 +C22 = 1;
+C7 +C17 +C29 +C49 +C59 +C71 >= 2;
+C8 +C18 +C30 +C50 +C60 +C72 >= 2;
R49: +C1 = 0;
R50: +C2 = 1;
R51: +C79 = 0;
R52: +C80 = 1;
+C39 +C42 = 1;

/* Variable bounds */
C1 <= 1;
C2 <= 1;
C3 <= 1;
C4 <= 1;
C5 <= 1;
C6 <= 1;
C7 <= 1;
C8 <= 1;
C9 <= 1;
C10 <= 1;
C11 <= 1;
C12 <= 1;
C13 <= 1;
C14 <= 1;
C15 <= 1;
C16 <= 1;
C17 <= 1;
C18 <= 1;
C19 <= 1;
C20 <= 1;
C21 <= 1;
C22 <= 1;
C23 <= 1;
C24 <= 1;
C25 <= 1;
C26 <= 1;
C27 <= 1;
C28 <= 1;
C29 <= 1;
C30 <= 1;
C31 <= 1;
C32 <= 1;
C33 <= 1;
C34 <= 1;
C35 <= 1;
C36 <= 1;
C37 <= 1;
C38 <= 1;
C39 <= 1;
C40 <= 1;
C41 <= 1;
C42 <= 1;
C43 <= 1;
C44 <= 1;
C45 <= 1;
C46 <= 1;
C47 <= 1;
C48 <= 1;
C49 <= 1;
C50 <= 1;
C51 <= 1;
C52 <= 1;
C53 <= 1;
C54 <= 1;
C55 <= 1;
C56 <= 1;
C57 <= 1;
C58 <= 1;
C59 <= 1;
C60 <= 1;
C61 <= 1;
C62 <= 1;
C63 <= 1;
C64 <= 1;
C65 <= 1;
C66 <= 1;
C67 <= 1;
C68 <= 1;
C69 <= 1;
C70 <= 1;
C71 <= 1;
C72 <= 1;
C73 <= 1;
C74 <= 1;
C75 <= 1;
C76 <= 1;
C77 <= 1;
C78 <= 1;
C79 <= 1;
C80 <= 1;

/* Integer definitions */
int C1,C2,C3,C4,C5,C6,C7,C8,C9,C10,C11,C12,C13,C14,C15,C16,C17,C18,C19,C20,C21,C22,C23,C24,C25,C26,C27,C28,C29,C30,C31,C32,C33,C34,C35,C36,C37,C38,C39,C40,C41,C42,C43,C44,C45,C46,C47,C48,C49,C50,C51,C52,C53,C54,C55,C56,C57,C58,C59,C60,C61,C62,C63,C64,C65,C66,C67,C68,C69,C70,C71,C72,C73,C74,C75,C76,C77,C78,C79,C80;
